p cnf 191 519
1 2 3 4 5 6 9 11 13 16 0
1 2 3 4 5 6 7 10 12 14 0
1 2 3 4 6 7 8 9 11 15 0
1 2 3 4 7 8 10 12 13 16 0
1 2 5 6 7 8 9 10 13 15 0
1 2 3 5 6 7 8 9 10 11 14 16 0
2 3 4 5 6 7 8 10 11 12 13 15 0
3 4 5 6 7 8 11 12 14 16 0
1 3 5 6 9 10 11 12 13 14 0
2 4 5 6 7 9 10 11 12 13 14 15 0
1 3 6 7 8 9 10 11 12 14 15 16 0
2 4 7 8 9 10 11 12 15 16 0
1 4 5 7 9 10 13 14 15 16 0
2 6 8 9 10 11 13 14 15 16 0
3 5 7 10 11 12 13 14 15 16 0
1 4 6 8 11 12 13 14 15 16 0
-6 -7 0
-6 -10 0
-6 -16 0
-11 -7 0
-11 -10 0
-11 -1 0
-2 -14 0
-3 -15 0
-4 -10 0
-5 -8 0
-9 -12 0
-13 -7 0
-31 21 34 0
-32 22 34 0
-33 23 34 0
-26 21 34 0
-27 22 34 0
-28 23 34 0
-26 -31 22 34 0
-26 -32 23 34 0
-26 -33 34 0
-27 -31 23 34 0
-27 -32 34 0
-27 -33 21 0
-28 -31 34 0
-28 -32 21 0
-28 -33 22 0
-34 17 0
-29 17 0
-34 -29 18 0
-30 18 0
-34 -30 19 0
-24 17 0
-34 -24 18 0
-25 18 0
-34 -25 19 0
-24 -29 18 0
-34 -24 -29 19 0
-24 -30 19 0
-34 -24 -30 20 0
-25 -29 19 0
-34 -25 -29 20 0
-25 -30 20 0
-34 -25 -30 0
-40 31 43 0
-41 32 43 0
-42 33 43 0
-36 31 43 0
-37 32 43 0
-38 33 43 0
-36 -40 32 43 0
-36 -41 33 43 0
-36 -42 43 0
-37 -40 33 43 0
-37 -41 43 0
-37 -42 31 0
-38 -40 43 0
-38 -41 31 0
-38 -42 32 0
-43 29 0
-39 29 0
-43 -39 30 0
-35 29 0
-43 -35 30 0
-35 -39 30 0
-43 -35 -39 0
-7 44 0
-8 44 0
-8 -7 45 0
-4 46 0
-3 46 0
-3 -4 47 0
-46 40 48 0
-47 41 48 0
-44 40 48 0
-45 41 48 0
-44 -46 41 48 0
-44 -47 42 48 0
-45 -46 42 48 0
-45 -47 48 0
-48 39 0
-15 49 0
-11 49 0
-11 -15 50 0
-12 51 0
-16 51 0
-16 -12 52 0
-51 36 53 0
-52 37 53 0
-49 36 53 0
-50 37 53 0
-49 -51 37 53 0
-49 -52 38 53 0
-50 -51 38 53 0
-50 -52 53 0
-53 35 0
-59 26 62 0
-60 27 62 0
-61 28 62 0
-55 26 62 0
-56 27 62 0
-57 28 62 0
-55 -59 27 62 0
-55 -60 28 62 0
-55 -61 62 0
-56 -59 28 62 0
-56 -60 62 0
-56 -61 26 0
-57 -59 62 0
-57 -60 26 0
-57 -61 27 0
-62 24 0
-58 24 0
-62 -58 25 0
-54 24 0
-62 -54 25 0
-54 -58 25 0
-62 -54 -58 0
-13 63 0
-9 63 0
-9 -13 64 0
-10 65 0
-14 65 0
-14 -10 66 0
-65 59 67 0
-66 60 67 0
-63 59 67 0
-64 60 67 0
-63 -65 60 67 0
-63 -66 61 67 0
-64 -65 61 67 0
-64 -66 67 0
-67 58 0
-2 68 0
-1 68 0
-1 -2 69 0
-5 70 0
-6 70 0
-6 -5 71 0
-70 55 72 0
-71 56 72 0
-68 55 72 0
-69 56 72 0
-68 -70 56 72 0
-68 -71 57 72 0
-69 -70 57 72 0
-69 -71 72 0
-72 54 0
-17 0
-18 0
-19 0
-20 0
-23 0
73 0
89 0
74 4 -73 0
74 -1 -73 0
4 -1 -73 0
75 8 -74 0
75 -2 -74 0
8 -2 -74 0
76 12 -75 0
76 -3 -75 0
12 -3 -75 0
77 16 -76 0
77 -4 -76 0
16 -4 -76 0
78 3 -77 0
78 -5 -77 0
3 -5 -77 0
79 7 -78 0
79 -6 -78 0
7 -6 -78 0
80 11 -79 0
80 -7 -79 0
11 -7 -79 0
81 15 -80 0
81 -8 -80 0
15 -8 -80 0
82 2 -81 0
82 -9 -81 0
2 -9 -81 0
83 6 -82 0
83 -10 -82 0
6 -10 -82 0
84 10 -83 0
84 -11 -83 0
10 -11 -83 0
85 14 -84 0
85 -12 -84 0
14 -12 -84 0
86 1 -85 0
86 -13 -85 0
1 -13 -85 0
87 5 -86 0
87 -14 -86 0
5 -14 -86 0
88 9 -87 0
88 -15 -87 0
9 -15 -87 0
89 13 -88 0
89 -16 -88 0
13 -16 -88 0
90 0
106 0
91 16 -90 0
91 -1 -90 0
16 -1 -90 0
92 15 -91 0
92 -2 -91 0
15 -2 -91 0
93 14 -92 0
93 -3 -92 0
14 -3 -92 0
94 13 -93 0
94 -4 -93 0
13 -4 -93 0
95 12 -94 0
95 -5 -94 0
12 -5 -94 0
96 11 -95 0
96 -6 -95 0
11 -6 -95 0
97 10 -96 0
97 -7 -96 0
10 -7 -96 0
98 9 -97 0
98 -8 -97 0
9 -8 -97 0
99 8 -98 0
99 -9 -98 0
8 -9 -98 0
100 7 -99 0
100 -10 -99 0
7 -10 -99 0
101 6 -100 0
101 -11 -100 0
6 -11 -100 0
102 5 -101 0
102 -12 -101 0
5 -12 -101 0
103 4 -102 0
103 -13 -102 0
4 -13 -102 0
104 3 -103 0
104 -14 -103 0
3 -14 -103 0
105 2 -104 0
105 -15 -104 0
2 -15 -104 0
106 1 -105 0
106 -16 -105 0
1 -16 -105 0
107 0
123 0
108 13 -107 0
108 -1 -107 0
13 -1 -107 0
109 9 -108 0
109 -2 -108 0
9 -2 -108 0
110 5 -109 0
110 -3 -109 0
5 -3 -109 0
111 1 -110 0
111 -4 -110 0
1 -4 -110 0
112 14 -111 0
112 -5 -111 0
14 -5 -111 0
113 10 -112 0
113 -6 -112 0
10 -6 -112 0
114 6 -113 0
114 -7 -113 0
6 -7 -113 0
115 2 -114 0
115 -8 -114 0
2 -8 -114 0
116 15 -115 0
116 -9 -115 0
15 -9 -115 0
117 11 -116 0
117 -10 -116 0
11 -10 -116 0
118 7 -117 0
118 -11 -117 0
7 -11 -117 0
119 3 -118 0
119 -12 -118 0
3 -12 -118 0
120 16 -119 0
120 -13 -119 0
16 -13 -119 0
121 12 -120 0
121 -14 -120 0
12 -14 -120 0
122 8 -121 0
122 -15 -121 0
8 -15 -121 0
123 4 -122 0
123 -16 -122 0
4 -16 -122 0
124 0
140 0
125 4 -124 0
125 -1 -124 0
4 -1 -124 0
126 3 -125 0
126 -2 -125 0
3 -2 -125 0
127 2 -126 0
127 -3 -126 0
2 -3 -126 0
128 1 -127 0
128 -4 -127 0
1 -4 -127 0
129 8 -128 0
129 -5 -128 0
8 -5 -128 0
130 7 -129 0
130 -6 -129 0
7 -6 -129 0
131 6 -130 0
131 -7 -130 0
6 -7 -130 0
132 5 -131 0
132 -8 -131 0
5 -8 -131 0
133 12 -132 0
133 -9 -132 0
12 -9 -132 0
134 11 -133 0
134 -10 -133 0
11 -10 -133 0
135 10 -134 0
135 -11 -134 0
10 -11 -134 0
136 9 -135 0
136 -12 -135 0
9 -12 -135 0
137 16 -136 0
137 -13 -136 0
16 -13 -136 0
138 15 -137 0
138 -14 -137 0
15 -14 -137 0
139 14 -138 0
139 -15 -138 0
14 -15 -138 0
140 13 -139 0
140 -16 -139 0
13 -16 -139 0
141 0
157 0
142 13 -141 0
142 -1 -141 0
13 -1 -141 0
143 14 -142 0
143 -2 -142 0
14 -2 -142 0
144 15 -143 0
144 -3 -143 0
15 -3 -143 0
145 16 -144 0
145 -4 -144 0
16 -4 -144 0
146 9 -145 0
146 -5 -145 0
9 -5 -145 0
147 10 -146 0
147 -6 -146 0
10 -6 -146 0
148 11 -147 0
148 -7 -147 0
11 -7 -147 0
149 12 -148 0
149 -8 -148 0
12 -8 -148 0
150 5 -149 0
150 -9 -149 0
5 -9 -149 0
151 6 -150 0
151 -10 -150 0
6 -10 -150 0
152 7 -151 0
152 -11 -151 0
7 -11 -151 0
153 8 -152 0
153 -12 -152 0
8 -12 -152 0
154 1 -153 0
154 -13 -153 0
1 -13 -153 0
155 2 -154 0
155 -14 -154 0
2 -14 -154 0
156 3 -155 0
156 -15 -155 0
3 -15 -155 0
157 4 -156 0
157 -16 -156 0
4 -16 -156 0
158 0
174 0
159 1 -158 0
159 -1 -158 0
1 -1 -158 0
160 5 -159 0
160 -2 -159 0
5 -2 -159 0
161 9 -160 0
161 -3 -160 0
9 -3 -160 0
162 13 -161 0
162 -4 -161 0
13 -4 -161 0
163 2 -162 0
163 -5 -162 0
2 -5 -162 0
164 6 -163 0
164 -6 -163 0
6 -6 -163 0
165 10 -164 0
165 -7 -164 0
10 -7 -164 0
166 14 -165 0
166 -8 -165 0
14 -8 -165 0
167 3 -166 0
167 -9 -166 0
3 -9 -166 0
168 7 -167 0
168 -10 -167 0
7 -10 -167 0
169 11 -168 0
169 -11 -168 0
11 -11 -168 0
170 15 -169 0
170 -12 -169 0
15 -12 -169 0
171 4 -170 0
171 -13 -170 0
4 -13 -170 0
172 8 -171 0
172 -14 -171 0
8 -14 -171 0
173 12 -172 0
173 -15 -172 0
12 -15 -172 0
174 16 -173 0
174 -16 -173 0
16 -16 -173 0
175 0
191 0
176 16 -175 0
176 -1 -175 0
16 -1 -175 0
177 12 -176 0
177 -2 -176 0
12 -2 -176 0
178 8 -177 0
178 -3 -177 0
8 -3 -177 0
179 4 -178 0
179 -4 -178 0
4 -4 -178 0
180 15 -179 0
180 -5 -179 0
15 -5 -179 0
181 11 -180 0
181 -6 -180 0
11 -6 -180 0
182 7 -181 0
182 -7 -181 0
7 -7 -181 0
183 3 -182 0
183 -8 -182 0
3 -8 -182 0
184 14 -183 0
184 -9 -183 0
14 -9 -183 0
185 10 -184 0
185 -10 -184 0
10 -10 -184 0
186 6 -185 0
186 -11 -185 0
6 -11 -185 0
187 2 -186 0
187 -12 -186 0
2 -12 -186 0
188 13 -187 0
188 -13 -187 0
13 -13 -187 0
189 9 -188 0
189 -14 -188 0
9 -14 -188 0
190 5 -189 0
190 -15 -189 0
5 -15 -189 0
191 1 -190 0
191 -16 -190 0
1 -16 -190 0
